 # --------------------------------- #
 #  Geometry Optimisation            #
 # --------------------------------- #
! XTB2 ALPB(water) Opt
%geom
MaxIter 10
end
*xyzfile 0 1 /home/esp/scriptDevelopment/drFrankenstein/11_PCY_CHARMM/01_termini_capping/geometry_optimisation/PCY_capped.xyz

