 # --------------------------------- #
 #  Geometry Optimisation            #
 # --------------------------------- #
! XTB2 ALPB(water) Opt
*xyzfile 0 1 /home/esp/scriptDevelopment/drFrankenstein/11_PCY_CHARMM/03_GOAT_conformers/PCY_conformer_26.xyz

