! XTB2 ALPB(WATER) PAL16

%SOLVATOR 
    NSOLV       100 
    CLUSTERMODE STOCHASTIC
END


*xyz 0 1

N -0.958 0.079 1.254
C 0.187 -0.24 0.529
C 0.563 0.603 -0.623
O -0.337 0.638 -1.664
C 0.21 -1.707 0.069
N 1.851 0.193 -1.138
C 2.865 0.341 -0.116
C -2.229 0.174 0.752
O -3.233 -0.531 1.369
C -2.659 1.301 -0.098
H -0.822 0.115 2.285
H 1.065 -0.186 1.252
H -0.318 -1.764 -0.893
H -0.238 -2.323 0.865
H 1.252 -2.033 -0.061
H 1.862 -0.76 -1.534
H 2.501 1.105 0.6
H 3.793 0.692 -0.643
H 3.1 -0.588 0.421
H -1.918 2.118 -0.098
H -3.605 1.779 0.305
H -2.932 0.994 -1.134
*