! XTB2 Opt
%geom Scan
D 2 10 9 8 = 0, 360, 10
end
end
*xyz 0 1

C 17.568 -74.143 -9.286
O 17.564 -73.555 -10.375
C 18.604 -73.822 -8.23
H 18.533 -72.782 -7.946
H 18.442 -74.435 -7.355
H 19.594 -74.014 -8.614
N 16.675 -75.043 -9.047
C 15.67 -75.367 -10.048
C 14.304 -75.563 -9.406
O 13.841 -76.697 -9.237
C 16.065 -76.597 -10.821
C 14.896 -77.359 -11.377
O 16.769 -77.456 -9.879
O 17.226 -79.471 -11.155
O 18.697 -77.511 -11.324
O 18.774 -78.845 -9.169
C 17.82 -80.782 -11.331
C 15.695 -81.611 -12.458
O 15.951 -81.7 -10.095
C 14.306 -82.15 -12.241
O 16.188 -82.286 -13.615
C 13.523 -82.069 -13.532
O 13.563 -81.372 -11.301
N 12.245 -81.373 -13.37
C 11.379 -81.747 -12.342
C 11.914 -80.368 -14.223
P 17.978 -78.347 -10.348
C 10.202 -81.011 -12.172
C 10.679 -79.669 -13.96
C 11.657 -82.826 -11.472
N 12.758 -80.087 -15.214
C 9.306 -81.333 -11.122
C 10.777 -83.124 -10.453
C 12.415 -79.062 -16.072
C 10.308 -78.544 -14.877
C 9.57 -82.369 -10.245
C 11.091 -84.277 -9.526
C 8.623 -82.697 -9.11
C 16.694 -81.806 -11.308
N 9.859 -79.953 -12.98
N 11.233 -78.368 -15.898
O 13.173 -78.761 -17.003
O 9.306 -77.86 -14.741
H 16.674 -75.526 -8.16
H 15.601 -74.536 -10.75
H 16.719 -76.318 -11.62
H 14.688 -77.02 -12.37
H 14.038 -77.198 -10.758
H 15.128 -78.404 -11.4
H 18.355 -78.556 -8.354
H 18.508 -80.981 -10.536
H 18.334 -80.827 -12.269
H 16.25 -80.933 -9.601
H 15.619 -80.563 -12.66
H 16.993 -82.76 -13.392
H 14.364 -83.17 -11.924
H 14.105 -80.643 -10.988
H 13.33 -83.063 -13.877
H 14.109 -81.546 -14.257
H 8.433 -80.779 -11.009
H 11.026 -77.68 -16.565
H 10.179 -84.686 -9.144
H 11.692 -83.927 -8.713
H 11.623 -85.032 -10.066
H 8.966 -82.226 -8.212
H 8.592 -83.757 -8.967
H 7.643 -82.339 -9.348
H 17.12 -82.784 -11.389
H 12.519 -83.392 -11.601
N 13.338 -74.836 -10.242
C 11.93 -74.831 -9.888
H 13.654 -74.339 -11.063
H 11.454 -75.729 -10.253
H 11.818 -74.787 -8.814
H 11.441 -73.973 -10.327
*