! QMMM XTB2 Opt 



%qmmm
  QMAtoms {0: 24} end

  ORCAFFFilename "/home/esp/scriptDevelopment/drFrankenstein/_hidden_scripts/QMMM_test/AIB_conformer_7_merged.ORCAFF.prms"


end

*xyzfile 0 1 /home/esp/scriptDevelopment/drFrankenstein/_hidden_scripts/QMMM_test/AIB_conformer_6.xyz
