 # --------------------------------- #
 #  GOAT conformation generation     #
 # --------------------------------- #
!XTB2 GOAT
%PAL NPROCS 16 END
%GOAT
	MAXITERMULT 1
	FREEZEAMIDES TRUE
	FREEZECISTRANS TRUE
 END
*xyzfile 0 1 /home/esp/scriptDevelopment/drFrankenstein/11_PCY_CHARMM/03_GOAT_conformers/PCY_capped.xyz
