 # --------------------------------- #
 #  QM/MM Optimisation               #
 # --------------------------------- #
! QMMM XTB2 Opt

%pal nprocs 8
end
%qmmm
    QMAtoms {0:53} end
    ORCAFFFilename "/home/esp/scriptDevelopment/drFrankenstein/07_TTC_outputs/05_charge_calculations/00_qm-mm_parameters/unsolvated_merged.ORCAFF.prms"
end
*xyzfile 0 1 TCC_conformer_7.xyz
